
Gurobi 11.0.1 (win64) logging started Thu May 16 18:18:38 2024

Set parameter LogFile to value "output/solver_log3.txt"
Gurobi Optimizer version 11.0.1 build v11.0.1rc0 (win64 - Windows 11.0 (22631.2))

CPU model: 11th Gen Intel(R) Core(TM) i7-1165G7 @ 2.80GHz, instruction set [SSE2|AVX|AVX2|AVX512]
Thread count: 4 physical cores, 8 logical processors, using up to 8 threads

Optimize a model with 6202 rows, 1609 columns and 119323 nonzeros
Model fingerprint: 0x780df774
Variable types: 568 continuous, 1041 integer (1041 binary)
Coefficient statistics:
  Matrix range     [4e-01, 1e+05]
  Objective range  [1e+00, 1e+02]
  Bounds range     [1e+00, 1e+00]
  RHS range        [1e-02, 1e+05]

User MIP start produced solution with objective 40058.5 (0.01s)
User MIP start produced solution with objective 40058.5 (0.01s)
Loaded user MIP start with objective 40058.5

Presolve removed 1298 rows and 653 columns
Presolve time: 0.11s
Presolved: 4904 rows, 956 columns, 94599 nonzeros
Variable types: 527 continuous, 429 integer (422 binary)

Root relaxation: objective 5.382450e+04, 1712 iterations, 0.14 seconds (0.23 work units)

    Nodes    |    Current Node    |     Objective Bounds      |     Work
 Expl Unexpl |  Obj  Depth IntInf | Incumbent    BestBd   Gap | It/Node Time

     0     0 53824.5000    0   80 40058.5334 53824.5000  34.4%     -    0s
     0     0 52676.3911    0   77 40058.5334 52676.3911  31.5%     -    0s
     0     0 52357.2778    0   91 40058.5334 52357.2778  30.7%     -    0s
     0     0 52356.4889    0   97 40058.5334 52356.4889  30.7%     -    0s
     0     0 52281.8570    0  105 40058.5334 52281.8570  30.5%     -    1s
     0     0 52141.0352    0  113 40058.5334 52141.0352  30.2%     -    1s
     0     0 52111.4268    0  116 40058.5334 52111.4268  30.1%     -    1s
     0     0 52111.4268    0  117 40058.5334 52111.4268  30.1%     -    1s
     0     0 52111.4268    0  115 40058.5334 52111.4268  30.1%     -    1s
     0     0 51045.1401    0  142 40058.5334 51045.1401  27.4%     -    2s
     0     0 50984.4285    0  120 40058.5334 50984.4285  27.3%     -    2s
     0     0 50983.7517    0  113 40058.5334 50983.7517  27.3%     -    2s
     0     0 50983.7517    0  113 40058.5334 50983.7517  27.3%     -    2s
     0     0 50943.8045    0  106 40058.5334 50943.8045  27.2%     -    2s
     0     0 50862.5865    0  105 40058.5334 50862.5865  27.0%     -    3s
     0     0 50803.2919    0  107 40058.5334 50803.2919  26.8%     -    3s
     0     0 50795.1426    0  103 40058.5334 50795.1426  26.8%     -    3s
     0     0 50795.1426    0  129 40058.5334 50795.1426  26.8%     -    3s
     0     0 50795.1426    0  129 40058.5334 50795.1426  26.8%     -    3s
     0     2 50795.1426    0  129 40058.5334 50795.1426  26.8%     -    3s
    23    28 49158.2331    6  106 40058.5334 50174.0605  25.3%   546    5s
   130   100 47102.9109    5   92 40058.5334 50170.8679  25.2%   768   10s
   294   211 40923.2147   12   60 40058.5334 50036.6270  24.9%   803   15s
   480   262 42215.3709   13   94 40058.5334 49132.3773  22.7%   761   20s
H  539   272                    40063.400461 49129.6880  22.6%   758   22s
H  544   272                    40063.680393 49129.6880  22.6%   756   22s
   640   309     cutoff   19      40063.6804 48640.7756  21.4%   745   25s
   736   337 44197.4590    9   72 40063.6804 46687.1777  16.5%   739   30s
  1014   405 42074.5758   11   64 40063.6804 45977.7216  14.8%   709   35s
  1308   442 42038.9267   12   65 40063.6804 45696.6230  14.1%   709   40s
  1581   484     cutoff   14      40063.6804 45501.3424  13.6%   695   49s
  1591   489 44669.3721    8   91 40063.6804 45501.3424  13.6%   696   56s
  1786   508     cutoff   10      40063.6804 45429.6855  13.4%   689   60s

Cutting planes:
  Implied bound: 18
  MIR: 101
  RLT: 8
  BQP: 2

Explored 1819 nodes (1273633 simplex iterations) in 60.02 seconds (143.88 work units)
Thread count was 8 (of 8 available processors)

Solution count 3: 40063.7 40063.4 40058.5 

Time limit reached
Best objective 4.006368039273e+04, best bound 4.542968550260e+04, gap 13.3937%
